100 500 200 500 10 100
37 221
86 385
83 313
35 443
35 405
33 399
18 310
33 404
79 484
59 398
75 455
98 295
38 387
42 428
95 347
17 450
16 240
59 212
69 321
61 342
99 207
50 314
76 325
68 345
51 382
77 354
42 397
28 341
83 244
82 439
93 419
25 207
99 471
50 262
74 423
78 464
10 444
41 446
17 294
46 224
41 232
90 261
49 275
22 410
30 368
62 408
100 434
37 496
67 384
45 342
94 410
28 436
93 331
86 319
75 472
74 298
44 420
59 330
70 460
68 212
28 336
28 364
22 285
95 371
85 416
72 474
51 266
88 427
11 290
97 219
58 236
99 464
33 427
91 350
81 282
100 463
94 231
42 386
36 434
10 234
66 218
15 423
24 366
14 431
83 242
72 415
34 466
11 433
43 421
31 477
67 394
39 267
11 214
83 241
62 408
12 246
18 481
51 459
64 466
29 250
